solution status: time limit reached
objective value:                          34201.98628
y#10                                                1 	(obj:5700)
y#15                                                1 	(obj:5700)
y#19                                                1 	(obj:5700)
y#22                                                1 	(obj:5700)
y#35                                                1 	(obj:5700)
y#39                                                1 	(obj:5700)
x#1#39                                              1 	(obj:0.01717)
x#2#35                                              1 	(obj:0.00221)
x#3#39                                              1 	(obj:0.04675)
x#4#22                                              1 	(obj:0.04029)
x#5#35                                              1 	(obj:0.03179)
x#6#15                                              1 	(obj:0.04998)
x#7#10                                              1 	(obj:0.07089)
x#8#19                                              1 	(obj:0.04743)
x#9#22                                              1 	(obj:0.00289)
x#10#39                                             1 	(obj:0.051)
x#11#19                                             1 	(obj:0.02227)
x#12#19                                             1 	(obj:0.00629)
x#13#35                                             1 	(obj:0.04233)
x#14#15                                             1 	(obj:0.02533)
x#15#35                                             1 	(obj:0.01717)
x#16#10                                             1 	(obj:0.02414)
x#17#22                                             1 	(obj:0.05644)
x#18#35                                             1 	(obj:0.04301)
x#19#35                                             1 	(obj:0.03655)
x#20#35                                             1 	(obj:0.03978)
x#21#22                                             1 	(obj:0.05304)
x#22#19                                             1 	(obj:0.02295)
x#23#15                                             1 	(obj:0.04692)
x#24#39                                             1 	(obj:0.02941)
x#25#22                                             1 	(obj:0.04063)
x#26#39                                             1 	(obj:0.00289)
x#27#19                                             1 	(obj:0.0034)
x#28#10                                             1 	(obj:0.06358)
x#29#39                                             1 	(obj:0.01564)
x#30#15                                             1 	(obj:0.02159)
x#31#39                                             1 	(obj:0.06052)
x#32#19                                             1 	(obj:0.02652)
x#33#10                                             1 	(obj:0.02431)
x#34#22                                             1 	(obj:0.03723)
x#35#22                                             1 	(obj:0.02652)
x#36#39                                             1 	(obj:0.02703)
x#37#22                                             1 	(obj:0.03077)
x#38#22                                             1 	(obj:0.05117)
x#39#39                                             1 	(obj:0.04301)
x#40#35                                             1 	(obj:0.03706)
x#41#19                                             1 	(obj:0.02193)
x#42#10                                             1 	(obj:0.03196)
x#43#15                                             1 	(obj:0.04556)
x#44#39                                             1 	(obj:0.02465)
x#45#10                                             1 	(obj:0.02091)
x#46#39                                             1 	(obj:0.02703)
x#47#35                                             1 	(obj:0.03995)
x#48#15                                             1 	(obj:0.03434)
x#49#35                                             1 	(obj:0.02006)
x#50#15                                             1 	(obj:0.051)
x#51#10                                             1 	(obj:0.02142)
x#52#15                                             1 	(obj:0.02482)
x#53#15                                             1 	(obj:0.0272)
x#54#22                                             1 	(obj:0.01292)
x#55#19                                             1 	(obj:0.02023)
x#56#10                                             1 	(obj:0.06273)
x#57#15                                             1 	(obj:0.05474)
x#58#22                                             1 	(obj:0.0136)
x#59#35                                             1 	(obj:0.05848)
x#60#15                                             1 	(obj:0.03485)
